webassembly/ejemplos_dzn/folder12_json_0.dzn
TERM = { '.', 's(5)', 'in_10', 'in_1', 'in_6', 'in_9', 'in_0', 's(4)', 'in_3', 's(1)', 's(7)', 's(2)', 's(9)', 'in_2', 's(8)', 's(6)', 'in_8', 's(0)', 's(3)', 'local_1', 'in_4', 'in_7', 'in_5'};
null = '.';
s = 12;
n = 17;
ndeps = 9;
max_registers_sz = 4;
NR = 1;
registers = [|'local_1', 'in_10'|];
dependencies = [|'call[function_index(0)]_0', 'i32.load16_s_2', |'call[function_index(0)]_0', 'i32.load16_s_3', |'call[function_index(0)]_0', 'i32.load_4', |'i32.load16_s_2', 'i32.store16_5', |'i32.load16_s_3', 'i32.store16_5', |'i32.load_4', 'i32.store16_5', |'i32.store16_5', 'i32.store_6', |'i32.store_6', 'call[function_index(1)]_8', |'call[function_index(1)]_8', 'call[function_index(2)]_9'|];
GET_ENUM = { GET1, GET2, GET3, GET4, GET5};
SET_ENUM = { SET1, SET2, SET3, SET4, SET5};
TEE_ENUM = { TEE1, TEE2, TEE3, TEE4, TEE5};
N = 10;
OP = { 'call[function_index(0)]_0', 'i32.sub_0', 'call[function_index(1)]_8', 'call[function_index(2)]_9', 'i32.add_0', 'i32.load16_s_2', 'i32.load16_s_3', 'i32.load_4', 'i32.store16_5', 'i32.store_6' };
in_ops = [2, 2, 3, 3, 2, 1, 1, 1, 2, 2 ];
out_ops = [3, 1, 2, 0, 1, 1, 1, 1, 0, 0 ];
in1 = ['in_0', 'in_4', 's(7)', 's(9)', 's(2)', 's(3)', 's(4)', 's(5)', 's(6)', 'in_2' ];
in2 = ['in_1', 'in_5', 'in_6', 's(8)', 's(1)', '.', '.', '.', 's(0)', 'in_3' ];
in3 = ['.', '.', 'in_7', 'in_8', '.', '.', '.', '.', '.', '.' ];
out1 = ['s(2)', 's(7)', 's(9)', '.', 's(3)', 's(4)', 's(5)', 's(6)', '.', '.' ];
out2 = ['s(1)', '.', 's(8)', '.', '.', '.', '.', '.', '.', '.' ];
out3 = ['s(0)', '.', '.', '.', '.', '.', '.', '.', '.', '.' ];
comm = [false, false, false, false, true, false, false, false, false, false ];
gas = [1, 1, 1, 1, 1, 1, 1, 1, 1, 1 ];
sz = [1, 1, 1, 1, 1, 1, 1, 1, 1, 1 ];
stor = [true, false, true, true, false, false, false, false, true, true ];
lb = [ 1, 1, 1, 1, 1, 1, 1, 1, 1, 1 ];
ub = [ 12, 12, 12, 12, 12, 12, 12, 12, 12, 12 ];
startstack = [ 'in_0', 'in_1', 'in_2', 'in_3', 'in_4', 'in_5', 'in_6', 'in_7', 'in_8', 'in_9', 'in_10', null, null, null, null, null, null ];
endstack = [ null, null, null, null, null, null, null, null, null, null, null, null, null, null, null, null, null ];
